2280 2191 100 99 98 97 96 95 94 93 92 91 90 89 88 87 86 85 84 83 82 81 80 79 78 77 76 75 74 72 71 70 68 67 66 64 63 62 61 60 59 55 54 52 51 50 49 47 46 45 44 42 41 40 39 38 37 36 35 34 33 32 31 30 26 20 18 16 14 13 12 10 9 6 5 4 3 2 